(declare-const BAV1 Bool)
(declare-const GEN2 Int)
(declare-const GEN1 Int)
(set-info :source |Handcrafted by Christoph M. Wintersteiger (cwinter@microsoft.com).|)
(declare-fun A () (Array Int (_ FloatingPoint 53 11)))
(assert (= (select A GEN1) (select A GEN2)))
(assert (= BAV1 (= (select A GEN1) (select A GEN2))))
(check-sat)
(get-model)
(exit)